% Instance for pentominoes model generated using https://github.com/zayenz/minizinc-pentominoes-generator
% Instance generated for board size 20 with 5 tiles using 17 as seed
% Generated board
%    55555511111111111111
%    55555111111111111111
%    55555111111111111111
%    55555111111111111111
%    55555555111111111111
%    55555552111111111111
%    55555552222211111111
%    55555552222222211111
%    55555542222222211111
%    55544442222222222111
%    55444442222222222221
%    55444442222222222222
%    53444442222222222222
%    33333342222222222222
%    33333332222222222222
%    33333333222222222222
%    33333333222222222222
%    33333333222222222222
%    33333333322222222222
%    33333333332222222222

size = 20;
tiles = 5;
expressions = [
    "( ([2 3 4 5 6]* 1{14} [2 3 4 5 6] [2 3 4 5 6]{5} 1{15} [2 3 4 5 6] [2 3 4 5 6]{5} 1{15} [2 3 4 5 6] [2 3 4 5 6]{5} 1{15} [2 3 4 5 6] [2 3 4 5 6]{8} 1{12} [2 3 4 5 6] [2 3 4 5 6]{8} 1{12} [2 3 4 5 6] [2 3 4 5 6]{12} 1{8} [2 3 4 5 6] [2 3 4 5 6]{15} 1{5} [2 3 4 5 6] [2 3 4 5 6]{15} 1{5} [2 3 4 5 6] [2 3 4 5 6]{17} 1{3} [2 3 4 5 6] [2 3 4 5 6]{19} 1{1} [2 3 4 5 6]*) | ([2 3 4 5 6]* 1{3} [2 3 4 5 6]{1} [2 3 4 5 6] [2 3 4 5 6]{16} 1{4} [2 3 4 5 6] [2 3 4 5 6]{16} 1{4} [2 3 4 5 6] [2 3 4 5 6]{14} 1{6} [2 3 4 5 6] [2 3 4 5 6]{14} 1{6} [2 3 4 5 6] [2 3 4 5 6]{14} 1{6} [2 3 4 5 6] [2 3 4 5 6]{14} 1{6} [2 3 4 5 6] [2 3 4 5 6]{13} 1{7} [2 3 4 5 6] [2 3 4 5 6]{13} 1{7} [2 3 4 5 6] [2 3 4 5 6]{13} 1{7} [2 3 4 5 6] [2 3 4 5 6]{11} 1{9} [2 3 4 5 6] [2 3 4 5 6]{11} 1{9} [2 3 4 5 6] [2 3 4 5 6]{10} 1{10} [2 3 4 5 6] [2 3 4 5 6]{10} 1{10} [2 3 4 5 6] [2 3 4 5 6]{9} 1{11} [2 3 4 5 6]*) | ([2 3 4 5 6]* 1{1} [2 3 4 5 6]{19} [2 3 4 5 6] 1{3} [2 3 4 5 6]{17} [2 3 4 5 6] 1{5} [2 3 4 5 6]{15} [2 3 4 5 6] 1{5} [2 3 4 5 6]{15} [2 3 4 5 6] 1{8} [2 3 4 5 6]{12} [2 3 4 5 6] 1{12} [2 3 4 5 6]{8} [2 3 4 5 6] 1{12} [2 3 4 5 6]{8} [2 3 4 5 6] 1{15} [2 3 4 5 6]{5} [2 3 4 5 6] 1{15} [2 3 4 5 6]{5} [2 3 4 5 6] 1{15} [2 3 4 5 6]{5} [2 3 4 5 6] 1{14} [2 3 4 5 6]*) | ([2 3 4 5 6]* 1{11} [2 3 4 5 6]{9} [2 3 4 5 6] 1{10} [2 3 4 5 6]{10} [2 3 4 5 6] 1{10} [2 3 4 5 6]{10} [2 3 4 5 6] 1{9} [2 3 4 5 6]{11} [2 3 4 5 6] 1{9} [2 3 4 5 6]{11} [2 3 4 5 6] 1{7} [2 3 4 5 6]{13} [2 3 4 5 6] 1{7} [2 3 4 5 6]{13} [2 3 4 5 6] 1{7} [2 3 4 5 6]{13} [2 3 4 5 6] 1{6} [2 3 4 5 6]{14} [2 3 4 5 6] 1{6} [2 3 4 5 6]{14} [2 3 4 5 6] 1{6} [2 3 4 5 6]{14} [2 3 4 5 6] 1{6} [2 3 4 5 6]{14} [2 3 4 5 6] 1{4} [2 3 4 5 6]{16} [2 3 4 5 6] 1{4} [2 3 4 5 6]{16} [2 3 4 5 6] [2 3 4 5 6]{1} 1{3} [2 3 4 5 6]*) | ([2 3 4 5 6]* 1{14} [2 3 4 5 6]{6} [2 3 4 5 6] 1{15} [2 3 4 5 6]{5} [2 3 4 5 6] 1{15} [2 3 4 5 6]{5} [2 3 4 5 6] 1{15} [2 3 4 5 6]{5} [2 3 4 5 6] 1{12} [2 3 4 5 6]{8} [2 3 4 5 6] 1{12} [2 3 4 5 6]{8} [2 3 4 5 6] 1{8} [2 3 4 5 6]{12} [2 3 4 5 6] 1{5} [2 3 4 5 6]{15} [2 3 4 5 6] 1{5} [2 3 4 5 6]{15} [2 3 4 5 6] 1{3} [2 3 4 5 6]{17} [2 3 4 5 6] 1{1} [2 3 4 5 6]*) | ([2 3 4 5 6]* 1{3} [2 3 4 5 6]{16} [2 3 4 5 6] 1{4} [2 3 4 5 6]{16} [2 3 4 5 6] 1{4} [2 3 4 5 6]{16} [2 3 4 5 6] 1{6} [2 3 4 5 6]{14} [2 3 4 5 6] 1{6} [2 3 4 5 6]{14} [2 3 4 5 6] 1{6} [2 3 4 5 6]{14} [2 3 4 5 6] 1{6} [2 3 4 5 6]{14} [2 3 4 5 6] 1{7} [2 3 4 5 6]{13} [2 3 4 5 6] 1{7} [2 3 4 5 6]{13} [2 3 4 5 6] 1{7} [2 3 4 5 6]{13} [2 3 4 5 6] 1{9} [2 3 4 5 6]{11} [2 3 4 5 6] 1{9} [2 3 4 5 6]{11} [2 3 4 5 6] 1{10} [2 3 4 5 6]{10} [2 3 4 5 6] 1{10} [2 3 4 5 6]{10} [2 3 4 5 6] 1{11} [2 3 4 5 6]*) | ([2 3 4 5 6]* 1{1} [2 3 4 5 6] [2 3 4 5 6]{17} 1{3} [2 3 4 5 6] [2 3 4 5 6]{15} 1{5} [2 3 4 5 6] [2 3 4 5 6]{15} 1{5} [2 3 4 5 6] [2 3 4 5 6]{12} 1{8} [2 3 4 5 6] [2 3 4 5 6]{8} 1{12} [2 3 4 5 6] [2 3 4 5 6]{8} 1{12} [2 3 4 5 6] [2 3 4 5 6]{5} 1{15} [2 3 4 5 6] [2 3 4 5 6]{5} 1{15} [2 3 4 5 6] [2 3 4 5 6]{5} 1{15} [2 3 4 5 6] [2 3 4 5 6]{6} 1{14} [2 3 4 5 6]*) | ([2 3 4 5 6]* 1{11} [2 3 4 5 6] [2 3 4 5 6]{10} 1{10} [2 3 4 5 6] [2 3 4 5 6]{10} 1{10} [2 3 4 5 6] [2 3 4 5 6]{11} 1{9} [2 3 4 5 6] [2 3 4 5 6]{11} 1{9} [2 3 4 5 6] [2 3 4 5 6]{13} 1{7} [2 3 4 5 6] [2 3 4 5 6]{13} 1{7} [2 3 4 5 6] [2 3 4 5 6]{13} 1{7} [2 3 4 5 6] [2 3 4 5 6]{14} 1{6} [2 3 4 5 6] [2 3 4 5 6]{14} 1{6} [2 3 4 5 6] [2 3 4 5 6]{14} 1{6} [2 3 4 5 6] [2 3 4 5 6]{14} 1{6} [2 3 4 5 6] [2 3 4 5 6]{16} 1{4} [2 3 4 5 6] [2 3 4 5 6]{16} 1{4} [2 3 4 5 6] [2 3 4 5 6]{16} 1{3} [2 3 4 5 6]*) )",
    "( ([1 3 4 5 6]* 2{1} [1 3 4 5 6]{12} [1 3 4 5 6] [1 3 4 5 6]{7} 2{5} [1 3 4 5 6]{8} [1 3 4 5 6] [1 3 4 5 6]{7} 2{8} [1 3 4 5 6]{5} [1 3 4 5 6] [1 3 4 5 6]{7} 2{8} [1 3 4 5 6]{5} [1 3 4 5 6] [1 3 4 5 6]{7} 2{10} [1 3 4 5 6]{3} [1 3 4 5 6] [1 3 4 5 6]{7} 2{12} [1 3 4 5 6]{1} [1 3 4 5 6] [1 3 4 5 6]{7} 2{13} [1 3 4 5 6] [1 3 4 5 6]{7} 2{13} [1 3 4 5 6] [1 3 4 5 6]{7} 2{13} [1 3 4 5 6] [1 3 4 5 6]{7} 2{13} [1 3 4 5 6] [1 3 4 5 6]{8} 2{12} [1 3 4 5 6] [1 3 4 5 6]{8} 2{12} [1 3 4 5 6] [1 3 4 5 6]{8} 2{12} [1 3 4 5 6] [1 3 4 5 6]{9} 2{11} [1 3 4 5 6] [1 3 4 5 6]{10} 2{10} [1 3 4 5 6]*) | ([1 3 4 5 6]* 2{10} [1 3 4 5 6]{5} [1 3 4 5 6] [1 3 4 5 6]{2} 2{12} [1 3 4 5 6]{6} [1 3 4 5 6] [1 3 4 5 6]{1} 2{13} [1 3 4 5 6]{6} [1 3 4 5 6] 2{14} [1 3 4 5 6]{6} [1 3 4 5 6] 2{14} [1 3 4 5 6]{6} [1 3 4 5 6] 2{13} [1 3 4 5 6]{7} [1 3 4 5 6] 2{13} [1 3 4 5 6]{7} [1 3 4 5 6] 2{13} [1 3 4 5 6]{7} [1 3 4 5 6] 2{11} [1 3 4 5 6]{9} [1 3 4 5 6] 2{11} [1 3 4 5 6]{9} [1 3 4 5 6] 2{10} [1 3 4 5 6]{10} [1 3 4 5 6] 2{10} [1 3 4 5 6]{10} [1 3 4 5 6] 2{9} [1 3 4 5 6]*) | ([1 3 4 5 6]* 2{10} [1 3 4 5 6]{10} [1 3 4 5 6] 2{11} [1 3 4 5 6]{9} [1 3 4 5 6] 2{12} [1 3 4 5 6]{8} [1 3 4 5 6] 2{12} [1 3 4 5 6]{8} [1 3 4 5 6] 2{12} [1 3 4 5 6]{8} [1 3 4 5 6] 2{13} [1 3 4 5 6]{7} [1 3 4 5 6] 2{13} [1 3 4 5 6]{7} [1 3 4 5 6] 2{13} [1 3 4 5 6]{7} [1 3 4 5 6] 2{13} [1 3 4 5 6]{7} [1 3 4 5 6] [1 3 4 5 6]{1} 2{12} [1 3 4 5 6]{7} [1 3 4 5 6] [1 3 4 5 6]{3} 2{10} [1 3 4 5 6]{7} [1 3 4 5 6] [1 3 4 5 6]{5} 2{8} [1 3 4 5 6]{7} [1 3 4 5 6] [1 3 4 5 6]{5} 2{8} [1 3 4 5 6]{7} [1 3 4 5 6] [1 3 4 5 6]{8} 2{5} [1 3 4 5 6]{7} [1 3 4 5 6] [1 3 4 5 6]{12} 2{1} [1 3 4 5 6]*) | ([1 3 4 5 6]* 2{9} [1 3 4 5 6] [1 3 4 5 6]{10} 2{10} [1 3 4 5 6] [1 3 4 5 6]{10} 2{10} [1 3 4 5 6] [1 3 4 5 6]{9} 2{11} [1 3 4 5 6] [1 3 4 5 6]{9} 2{11} [1 3 4 5 6] [1 3 4 5 6]{7} 2{13} [1 3 4 5 6] [1 3 4 5 6]{7} 2{13} [1 3 4 5 6] [1 3 4 5 6]{7} 2{13} [1 3 4 5 6] [1 3 4 5 6]{6} 2{14} [1 3 4 5 6] [1 3 4 5 6]{6} 2{14} [1 3 4 5 6] [1 3 4 5 6]{6} 2{13} [1 3 4 5 6]{1} [1 3 4 5 6] [1 3 4 5 6]{6} 2{12} [1 3 4 5 6]{2} [1 3 4 5 6] [1 3 4 5 6]{5} 2{10} [1 3 4 5 6]*) | ([1 3 4 5 6]* 2{1} [1 3 4 5 6]{7} [1 3 4 5 6] [1 3 4 5 6]{8} 2{5} [1 3 4 5 6]{7} [1 3 4 5 6] [1 3 4 5 6]{5} 2{8} [1 3 4 5 6]{7} [1 3 4 5 6] [1 3 4 5 6]{5} 2{8} [1 3 4 5 6]{7} [1 3 4 5 6] [1 3 4 5 6]{3} 2{10} [1 3 4 5 6]{7} [1 3 4 5 6] [1 3 4 5 6]{1} 2{12} [1 3 4 5 6]{7} [1 3 4 5 6] 2{13} [1 3 4 5 6]{7} [1 3 4 5 6] 2{13} [1 3 4 5 6]{7} [1 3 4 5 6] 2{13} [1 3 4 5 6]{7} [1 3 4 5 6] 2{13} [1 3 4 5 6]{7} [1 3 4 5 6] 2{12} [1 3 4 5 6]{8} [1 3 4 5 6] 2{12} [1 3 4 5 6]{8} [1 3 4 5 6] 2{12} [1 3 4 5 6]{8} [1 3 4 5 6] 2{11} [1 3 4 5 6]{9} [1 3 4 5 6] 2{10} [1 3 4 5 6]*) | ([1 3 4 5 6]* 2{10} [1 3 4 5 6]{5} [1 3 4 5 6] [1 3 4 5 6]{6} 2{12} [1 3 4 5 6]{2} [1 3 4 5 6] [1 3 4 5 6]{6} 2{13} [1 3 4 5 6]{1} [1 3 4 5 6] [1 3 4 5 6]{6} 2{14} [1 3 4 5 6] [1 3 4 5 6]{6} 2{14} [1 3 4 5 6] [1 3 4 5 6]{7} 2{13} [1 3 4 5 6] [1 3 4 5 6]{7} 2{13} [1 3 4 5 6] [1 3 4 5 6]{7} 2{13} [1 3 4 5 6] [1 3 4 5 6]{9} 2{11} [1 3 4 5 6] [1 3 4 5 6]{9} 2{11} [1 3 4 5 6] [1 3 4 5 6]{10} 2{10} [1 3 4 5 6] [1 3 4 5 6]{10} 2{10} [1 3 4 5 6] [1 3 4 5 6]{11} 2{9} [1 3 4 5 6]*) | ([1 3 4 5 6]* 2{10} [1 3 4 5 6] [1 3 4 5 6]{9} 2{11} [1 3 4 5 6] [1 3 4 5 6]{8} 2{12} [1 3 4 5 6] [1 3 4 5 6]{8} 2{12} [1 3 4 5 6] [1 3 4 5 6]{8} 2{12} [1 3 4 5 6] [1 3 4 5 6]{7} 2{13} [1 3 4 5 6] [1 3 4 5 6]{7} 2{13} [1 3 4 5 6] [1 3 4 5 6]{7} 2{13} [1 3 4 5 6] [1 3 4 5 6]{7} 2{13} [1 3 4 5 6] [1 3 4 5 6]{7} 2{12} [1 3 4 5 6]{1} [1 3 4 5 6] [1 3 4 5 6]{7} 2{10} [1 3 4 5 6]{3} [1 3 4 5 6] [1 3 4 5 6]{7} 2{8} [1 3 4 5 6]{5} [1 3 4 5 6] [1 3 4 5 6]{7} 2{8} [1 3 4 5 6]{5} [1 3 4 5 6] [1 3 4 5 6]{7} 2{5} [1 3 4 5 6]{8} [1 3 4 5 6] [1 3 4 5 6]{7} 2{1} [1 3 4 5 6]*) | ([1 3 4 5 6]* 2{9} [1 3 4 5 6]{11} [1 3 4 5 6] 2{10} [1 3 4 5 6]{10} [1 3 4 5 6] 2{10} [1 3 4 5 6]{10} [1 3 4 5 6] 2{11} [1 3 4 5 6]{9} [1 3 4 5 6] 2{11} [1 3 4 5 6]{9} [1 3 4 5 6] 2{13} [1 3 4 5 6]{7} [1 3 4 5 6] 2{13} [1 3 4 5 6]{7} [1 3 4 5 6] 2{13} [1 3 4 5 6]{7} [1 3 4 5 6] 2{14} [1 3 4 5 6]{6} [1 3 4 5 6] 2{14} [1 3 4 5 6]{6} [1 3 4 5 6] [1 3 4 5 6]{1} 2{13} [1 3 4 5 6]{6} [1 3 4 5 6] [1 3 4 5 6]{2} 2{12} [1 3 4 5 6]{6} [1 3 4 5 6] [1 3 4 5 6]{5} 2{10} [1 3 4 5 6]*) )",
    "( ([1 2 4 5 6]* 3{1} [1 2 4 5 6]{18} [1 2 4 5 6] 3{6} [1 2 4 5 6]{14} [1 2 4 5 6] 3{7} [1 2 4 5 6]{13} [1 2 4 5 6] 3{8} [1 2 4 5 6]{12} [1 2 4 5 6] 3{8} [1 2 4 5 6]{12} [1 2 4 5 6] 3{8} [1 2 4 5 6]{12} [1 2 4 5 6] 3{9} [1 2 4 5 6]{11} [1 2 4 5 6] 3{10} [1 2 4 5 6]*) | ([1 2 4 5 6]* 3{7} [1 2 4 5 6]{13} [1 2 4 5 6] 3{8} [1 2 4 5 6]{12} [1 2 4 5 6] 3{7} [1 2 4 5 6]{13} [1 2 4 5 6] 3{7} [1 2 4 5 6]{13} [1 2 4 5 6] 3{7} [1 2 4 5 6]{13} [1 2 4 5 6] 3{7} [1 2 4 5 6]{13} [1 2 4 5 6] 3{6} [1 2 4 5 6]{14} [1 2 4 5 6] 3{5} [1 2 4 5 6]{15} [1 2 4 5 6] 3{2} [1 2 4 5 6]{18} [1 2 4 5 6] 3{1} [1 2 4 5 6]*) | ([1 2 4 5 6]* 3{10} [1 2 4 5 6] [1 2 4 5 6]{11} 3{9} [1 2 4 5 6] [1 2 4 5 6]{12} 3{8} [1 2 4 5 6] [1 2 4 5 6]{12} 3{8} [1 2 4 5 6] [1 2 4 5 6]{12} 3{8} [1 2 4 5 6] [1 2 4 5 6]{13} 3{7} [1 2 4 5 6] [1 2 4 5 6]{14} 3{6} [1 2 4 5 6] [1 2 4 5 6]{18} 3{1} [1 2 4 5 6]*) | ([1 2 4 5 6]* 3{1} [1 2 4 5 6] [1 2 4 5 6]{18} 3{2} [1 2 4 5 6] [1 2 4 5 6]{15} 3{5} [1 2 4 5 6] [1 2 4 5 6]{14} 3{6} [1 2 4 5 6] [1 2 4 5 6]{13} 3{7} [1 2 4 5 6] [1 2 4 5 6]{13} 3{7} [1 2 4 5 6] [1 2 4 5 6]{13} 3{7} [1 2 4 5 6] [1 2 4 5 6]{13} 3{7} [1 2 4 5 6] [1 2 4 5 6]{12} 3{8} [1 2 4 5 6] [1 2 4 5 6]{13} 3{7} [1 2 4 5 6]*) | ([1 2 4 5 6]* 3{1} [1 2 4 5 6]{1} [1 2 4 5 6] [1 2 4 5 6]{14} 3{6} [1 2 4 5 6] [1 2 4 5 6]{13} 3{7} [1 2 4 5 6] [1 2 4 5 6]{12} 3{8} [1 2 4 5 6] [1 2 4 5 6]{12} 3{8} [1 2 4 5 6] [1 2 4 5 6]{12} 3{8} [1 2 4 5 6] [1 2 4 5 6]{11} 3{9} [1 2 4 5 6] [1 2 4 5 6]{10} 3{10} [1 2 4 5 6]*) | ([1 2 4 5 6]* 3{7} [1 2 4 5 6] [1 2 4 5 6]{12} 3{8} [1 2 4 5 6] [1 2 4 5 6]{13} 3{7} [1 2 4 5 6] [1 2 4 5 6]{13} 3{7} [1 2 4 5 6] [1 2 4 5 6]{13} 3{7} [1 2 4 5 6] [1 2 4 5 6]{13} 3{7} [1 2 4 5 6] [1 2 4 5 6]{14} 3{6} [1 2 4 5 6] [1 2 4 5 6]{15} 3{5} [1 2 4 5 6] [1 2 4 5 6]{18} 3{2} [1 2 4 5 6] [1 2 4 5 6]{19} 3{1} [1 2 4 5 6]*) | ([1 2 4 5 6]* 3{10} [1 2 4 5 6]{10} [1 2 4 5 6] 3{9} [1 2 4 5 6]{11} [1 2 4 5 6] 3{8} [1 2 4 5 6]{12} [1 2 4 5 6] 3{8} [1 2 4 5 6]{12} [1 2 4 5 6] 3{8} [1 2 4 5 6]{12} [1 2 4 5 6] 3{7} [1 2 4 5 6]{13} [1 2 4 5 6] 3{6} [1 2 4 5 6]{14} [1 2 4 5 6] [1 2 4 5 6]{1} 3{1} [1 2 4 5 6]*) | ([1 2 4 5 6]* 3{1} [1 2 4 5 6]{19} [1 2 4 5 6] 3{2} [1 2 4 5 6]{18} [1 2 4 5 6] 3{5} [1 2 4 5 6]{15} [1 2 4 5 6] 3{6} [1 2 4 5 6]{14} [1 2 4 5 6] 3{7} [1 2 4 5 6]{13} [1 2 4 5 6] 3{7} [1 2 4 5 6]{13} [1 2 4 5 6] 3{7} [1 2 4 5 6]{13} [1 2 4 5 6] 3{7} [1 2 4 5 6]{13} [1 2 4 5 6] 3{8} [1 2 4 5 6]{12} [1 2 4 5 6] 3{7} [1 2 4 5 6]*) )",
    "( ([1 2 3 5 6]* 4{1} [1 2 3 5 6]{13} [1 2 3 5 6] [1 2 3 5 6]{3} 4{4} [1 2 3 5 6]{13} [1 2 3 5 6] [1 2 3 5 6]{2} 4{5} [1 2 3 5 6]{13} [1 2 3 5 6] [1 2 3 5 6]{2} 4{5} [1 2 3 5 6]{13} [1 2 3 5 6] [1 2 3 5 6]{2} 4{5} [1 2 3 5 6]{13} [1 2 3 5 6] [1 2 3 5 6]{6} 4{1} [1 2 3 5 6]*) | ([1 2 3 5 6]* 4{3} [1 2 3 5 6]{10} [1 2 3 5 6] [1 2 3 5 6]{7} 4{4} [1 2 3 5 6]{9} [1 2 3 5 6] [1 2 3 5 6]{7} 4{4} [1 2 3 5 6]{9} [1 2 3 5 6] [1 2 3 5 6]{7} 4{4} [1 2 3 5 6]{9} [1 2 3 5 6] [1 2 3 5 6]{6} 4{6} [1 2 3 5 6]*) | ([1 2 3 5 6]* 4{1} [1 2 3 5 6]{6} [1 2 3 5 6] [1 2 3 5 6]{13} 4{5} [1 2 3 5 6]{2} [1 2 3 5 6] [1 2 3 5 6]{13} 4{5} [1 2 3 5 6]{2} [1 2 3 5 6] [1 2 3 5 6]{13} 4{5} [1 2 3 5 6]{2} [1 2 3 5 6] [1 2 3 5 6]{13} 4{4} [1 2 3 5 6]{3} [1 2 3 5 6] [1 2 3 5 6]{13} 4{1} [1 2 3 5 6]*) | ([1 2 3 5 6]* 4{6} [1 2 3 5 6]{6} [1 2 3 5 6] [1 2 3 5 6]{9} 4{4} [1 2 3 5 6]{7} [1 2 3 5 6] [1 2 3 5 6]{9} 4{4} [1 2 3 5 6]{7} [1 2 3 5 6] [1 2 3 5 6]{9} 4{4} [1 2 3 5 6]{7} [1 2 3 5 6] [1 2 3 5 6]{10} 4{3} [1 2 3 5 6]*) | ([1 2 3 5 6]* 4{1} [1 2 3 5 6]{6} [1 2 3 5 6] [1 2 3 5 6]{13} 4{4} [1 2 3 5 6]{3} [1 2 3 5 6] [1 2 3 5 6]{13} 4{5} [1 2 3 5 6]{2} [1 2 3 5 6] [1 2 3 5 6]{13} 4{5} [1 2 3 5 6]{2} [1 2 3 5 6] [1 2 3 5 6]{13} 4{5} [1 2 3 5 6]{2} [1 2 3 5 6] [1 2 3 5 6]{13} 4{1} [1 2 3 5 6]*) | ([1 2 3 5 6]* 4{3} [1 2 3 5 6]{7} [1 2 3 5 6] [1 2 3 5 6]{9} 4{4} [1 2 3 5 6]{7} [1 2 3 5 6] [1 2 3 5 6]{9} 4{4} [1 2 3 5 6]{7} [1 2 3 5 6] [1 2 3 5 6]{9} 4{4} [1 2 3 5 6]{7} [1 2 3 5 6] [1 2 3 5 6]{8} 4{6} [1 2 3 5 6]*) | ([1 2 3 5 6]* 4{1} [1 2 3 5 6]{13} [1 2 3 5 6] [1 2 3 5 6]{2} 4{5} [1 2 3 5 6]{13} [1 2 3 5 6] [1 2 3 5 6]{2} 4{5} [1 2 3 5 6]{13} [1 2 3 5 6] [1 2 3 5 6]{2} 4{5} [1 2 3 5 6]{13} [1 2 3 5 6] [1 2 3 5 6]{3} 4{4} [1 2 3 5 6]{13} [1 2 3 5 6] [1 2 3 5 6]{6} 4{1} [1 2 3 5 6]*) | ([1 2 3 5 6]* 4{6} [1 2 3 5 6]{8} [1 2 3 5 6] [1 2 3 5 6]{7} 4{4} [1 2 3 5 6]{9} [1 2 3 5 6] [1 2 3 5 6]{7} 4{4} [1 2 3 5 6]{9} [1 2 3 5 6] [1 2 3 5 6]{7} 4{4} [1 2 3 5 6]{9} [1 2 3 5 6] [1 2 3 5 6]{7} 4{3} [1 2 3 5 6]*) )",
    "( ([1 2 3 4 6]* 5{6} [1 2 3 4 6]{14} [1 2 3 4 6] 5{5} [1 2 3 4 6]{15} [1 2 3 4 6] 5{5} [1 2 3 4 6]{15} [1 2 3 4 6] 5{5} [1 2 3 4 6]{15} [1 2 3 4 6] 5{8} [1 2 3 4 6]{12} [1 2 3 4 6] 5{7} [1 2 3 4 6]{13} [1 2 3 4 6] 5{7} [1 2 3 4 6]{13} [1 2 3 4 6] 5{7} [1 2 3 4 6]{13} [1 2 3 4 6] 5{6} [1 2 3 4 6]{14} [1 2 3 4 6] 5{3} [1 2 3 4 6]{17} [1 2 3 4 6] 5{2} [1 2 3 4 6]{18} [1 2 3 4 6] 5{2} [1 2 3 4 6]{18} [1 2 3 4 6] 5{1} [1 2 3 4 6]*) | ([1 2 3 4 6]* 5{13} [1 2 3 4 6] [1 2 3 4 6]{8} 5{12} [1 2 3 4 6] [1 2 3 4 6]{10} 5{10} [1 2 3 4 6] [1 2 3 4 6]{11} 5{9} [1 2 3 4 6] [1 2 3 4 6]{11} 5{9} [1 2 3 4 6] [1 2 3 4 6]{11} 5{5} [1 2 3 4 6]{3} 5{1} [1 2 3 4 6] [1 2 3 4 6]{12} 5{4} [1 2 3 4 6]{4} [1 2 3 4 6] [1 2 3 4 6]{15} 5{1} [1 2 3 4 6]*) | ([1 2 3 4 6]* 5{1} [1 2 3 4 6] [1 2 3 4 6]{18} 5{2} [1 2 3 4 6] [1 2 3 4 6]{18} 5{2} [1 2 3 4 6] [1 2 3 4 6]{17} 5{3} [1 2 3 4 6] [1 2 3 4 6]{14} 5{6} [1 2 3 4 6] [1 2 3 4 6]{13} 5{7} [1 2 3 4 6] [1 2 3 4 6]{13} 5{7} [1 2 3 4 6] [1 2 3 4 6]{13} 5{7} [1 2 3 4 6] [1 2 3 4 6]{12} 5{8} [1 2 3 4 6] [1 2 3 4 6]{15} 5{5} [1 2 3 4 6] [1 2 3 4 6]{15} 5{5} [1 2 3 4 6] [1 2 3 4 6]{15} 5{5} [1 2 3 4 6] [1 2 3 4 6]{14} 5{6} [1 2 3 4 6]*) | ([1 2 3 4 6]* 5{1} [1 2 3 4 6]{15} [1 2 3 4 6] [1 2 3 4 6]{4} 5{4} [1 2 3 4 6]{12} [1 2 3 4 6] 5{1} [1 2 3 4 6]{3} 5{5} [1 2 3 4 6]{11} [1 2 3 4 6] 5{9} [1 2 3 4 6]{11} [1 2 3 4 6] 5{9} [1 2 3 4 6]{11} [1 2 3 4 6] 5{10} [1 2 3 4 6]{10} [1 2 3 4 6] 5{12} [1 2 3 4 6]{8} [1 2 3 4 6] 5{13} [1 2 3 4 6]*) | ([1 2 3 4 6]* 5{6} [1 2 3 4 6] [1 2 3 4 6]{15} 5{5} [1 2 3 4 6] [1 2 3 4 6]{15} 5{5} [1 2 3 4 6] [1 2 3 4 6]{15} 5{5} [1 2 3 4 6] [1 2 3 4 6]{12} 5{8} [1 2 3 4 6] [1 2 3 4 6]{13} 5{7} [1 2 3 4 6] [1 2 3 4 6]{13} 5{7} [1 2 3 4 6] [1 2 3 4 6]{13} 5{7} [1 2 3 4 6] [1 2 3 4 6]{14} 5{6} [1 2 3 4 6] [1 2 3 4 6]{17} 5{3} [1 2 3 4 6] [1 2 3 4 6]{18} 5{2} [1 2 3 4 6] [1 2 3 4 6]{18} 5{2} [1 2 3 4 6] [1 2 3 4 6]{19} 5{1} [1 2 3 4 6]*) | ([1 2 3 4 6]* 5{13} [1 2 3 4 6]{7} [1 2 3 4 6] 5{12} [1 2 3 4 6]{8} [1 2 3 4 6] 5{10} [1 2 3 4 6]{10} [1 2 3 4 6] 5{9} [1 2 3 4 6]{11} [1 2 3 4 6] 5{9} [1 2 3 4 6]{11} [1 2 3 4 6] 5{1} [1 2 3 4 6]{3} 5{5} [1 2 3 4 6]{11} [1 2 3 4 6] [1 2 3 4 6]{4} 5{4} [1 2 3 4 6]{12} [1 2 3 4 6] [1 2 3 4 6]{4} 5{1} [1 2 3 4 6]*) | ([1 2 3 4 6]* 5{1} [1 2 3 4 6]{19} [1 2 3 4 6] 5{2} [1 2 3 4 6]{18} [1 2 3 4 6] 5{2} [1 2 3 4 6]{18} [1 2 3 4 6] 5{3} [1 2 3 4 6]{17} [1 2 3 4 6] 5{6} [1 2 3 4 6]{14} [1 2 3 4 6] 5{7} [1 2 3 4 6]{13} [1 2 3 4 6] 5{7} [1 2 3 4 6]{13} [1 2 3 4 6] 5{7} [1 2 3 4 6]{13} [1 2 3 4 6] 5{8} [1 2 3 4 6]{12} [1 2 3 4 6] 5{5} [1 2 3 4 6]{15} [1 2 3 4 6] 5{5} [1 2 3 4 6]{15} [1 2 3 4 6] 5{5} [1 2 3 4 6]{15} [1 2 3 4 6] 5{6} [1 2 3 4 6]*) | ([1 2 3 4 6]* 5{1} [1 2 3 4 6]{4} [1 2 3 4 6] [1 2 3 4 6]{12} 5{4} [1 2 3 4 6]{4} [1 2 3 4 6] [1 2 3 4 6]{11} 5{5} [1 2 3 4 6]{3} 5{1} [1 2 3 4 6] [1 2 3 4 6]{11} 5{9} [1 2 3 4 6] [1 2 3 4 6]{11} 5{9} [1 2 3 4 6] [1 2 3 4 6]{10} 5{10} [1 2 3 4 6] [1 2 3 4 6]{8} 5{12} [1 2 3 4 6] [1 2 3 4 6]{7} 5{13} [1 2 3 4 6]*) )",
];
